6 5
10	1 1 10 2 2 20 3 20 2 2 20 3 20 2 2 20 3 20 2 2 20 3 20 2 2 20 4 20 1 4 20 2 3 20 4 20 1 5 5 1 1 10
7	1 1 10 2 2 20 3 20 2 2 20 3 20 1 4 20 2 3 20 4 20 1 5 5 1 1 10
7	1 1 10 2 2 20 3 20 2 2 20 3 20 2 2 20 3 20 2 2 20 4 20 1 5 5 1 1 10
10	1 1 10 2 2 20 3 20 2 2 20 3 20 2 2 20 3 20 2 2 20 3 20 2 2 20 4 20 1 4 20 2 3 20 4 20 1 5 5 1 1 10
7	1 1 10 2 2 20 3 20 2 2 20 3 20 1 4 20 2 3 20 4 20 1 5 5 1 1 10
7	1 1 10 2 2 20 3 20 2 2 20 3 20 2 2 20 3 20 2 2 20 4 20 1 5 5 1 1 10